VRPTWMS/instances/mip/fuel/4/N4-C_DV100-C_SV30_F6_12_No_1.log

Gurobi 6.0.4 (win64) logging started 06/21/15 19:06:15

Read LP format model from file C:\MT\repository\VRPTWMS\instances\mip\fuel\N4-C_DV100-C_SV30_F6_12_No_1.lp
Reading time = 0.00 seconds
(null): 129 rows, 76 columns, 459 nonzeros
Optimize a model with 129 rows, 76 columns and 459 nonzeros
Model has 80 quadratic constraints
Coefficient statistics:
  Matrix range    [1e+00, 1e+06]
  Objective range [4e+04, 1e+07]
  Bounds range    [1e+00, 1e+06]
  RHS range       [1e+00, 1e+06]
Presolve removed 15 rows and 9 columns
Presolve time: 0.01s
Presolved: 265 rows, 149 columns, 1141 nonzeros
Variable types: 69 continuous, 80 integer (57 binary)
Found heuristic solution: objective 4.162100e+07

Root relaxation: objective 7.059908e+06, 30 iterations, 0.00 seconds

    Nodes    |    Current Node    |     Objective Bounds      |     Work
 Expl Unexpl |  Obj  Depth IntInf | Incumbent    BestBd   Gap | It/Node Time

     0     0 7059908.45    0   16 4.1621e+07 7059908.45  83.0%     -    0s
     0     0 1.1120e+07    0   17 4.1621e+07 1.1120e+07  73.3%     -    0s
H    0     0                    2.109980e+07 1.1120e+07  47.3%     -    0s
     0     0 1.1315e+07    0    2 2.1100e+07 1.1315e+07  46.4%     -    0s
     0     0 1.1316e+07    0    8 2.1100e+07 1.1316e+07  46.4%     -    0s
     0     0 1.1332e+07    0   20 2.1100e+07 1.1332e+07  46.3%     -    0s
     0     0 1.1363e+07    0    9 2.1100e+07 1.1363e+07  46.1%     -    0s
     0     0 1.1363e+07    0    8 2.1100e+07 1.1363e+07  46.1%     -    0s
     0     0 1.1363e+07    0    7 2.1100e+07 1.1363e+07  46.1%     -    0s
     0     0 1.1363e+07    0   12 2.1100e+07 1.1363e+07  46.1%     -    0s
     0     0 1.1363e+07    0   12 2.1100e+07 1.1363e+07  46.1%     -    0s
     0     0 1.1363e+07    0    8 2.1100e+07 1.1363e+07  46.1%     -    0s
     0     0 1.1363e+07    0    8 2.1100e+07 1.1363e+07  46.1%     -    0s
     0     0 1.1363e+07    0    7 2.1100e+07 1.1363e+07  46.1%     -    0s
     0     0 1.1363e+07    0    8 2.1100e+07 1.1363e+07  46.1%     -    0s
     0     2 1.1363e+07    0    8 2.1100e+07 1.1363e+07  46.1%     -    0s

Cutting planes:
  Gomory: 1
  Cover: 7
  Implied bound: 4
  Clique: 3
  MIR: 9
  GUB cover: 2

Explored 21 nodes (482 simplex iterations) in 0.10 seconds
Thread count was 2 (of 4 available processors)

Optimal solution found (tolerance 1.00e-04)
Best objective 2.109980000000e+07, best bound 2.109980000000e+07, gap 0.0%
k_c1	939999.0
k_c2	1000000.0
k_c3	50000.0
k_c4	80000.0
k_dN	-0.0
o_1	0.0
o_2	0.0
o_3	0.0
o_4	0.0
p_1	0.0
p_2	0.0
p_3	0.0
p_4	0.0
phi_c1	35635.0
phi_c2	44098.0
phi_c3	24743.0
phi_c4	48868.0
phi_dN	0.0
pi_c1	0.0
pi_c2	0.0
pi_c3	0.0
pi_c4	0.0
pi_dN	-0.0
tauD_c1	700000.0
tauD_c2	189350.0
tauD_c3	769224.0
tauD_c4	650000.0
tauD_d0	-0.0
tauD_dN	1000000.0
tauS_c1	0.0
tauS_c2	0.0
tauS_c3	819224.0
tauS_c4	827999.0
tauS_d0	-0.0
tauS_dN	0.0
x_c1_dN	1.0
x_c2_c1	1.0
x_c3_dN	1.0
x_c4_c3	1.0
x_d0_c2	1.0
x_d0_c4	1.0
